linearProgramming/models/LP1-prob2-model2.sol
{"objective": {"name": "OBJ", "coefficients": [{"name": "Pig_A", "value": 26}, {"name": "Pig_B", "value": 30}, {"name": "Pig_C", "value": 20}, {"name": "Manganese", "value": 8}]}, "constraints": [{"sense": 0, "pi": -12.401453, "constant": -1.0, "name": "Total_Weight_Constraint", "coefficients": [{"name": "Pig_A", "value": 1}, {"name": "Pig_B", "value": 1}, {"name": "Pig_C", "value": 1}, {"name": "Manganese", "value": 0.001}]}, {"sense": 1, "pi": 8.0124015, "constant": -4.5, "name": "Manganese_Constraint", "coefficients": [{"name": "Pig_A", "value": 4.5}, {"name": "Pig_B", "value": 5}, {"name": "Pig_C", "value": 4}, {"name": "Manganese", "value": 1}]}, {"sense": 1, "pi": 0.058641155, "constant": -32.5, "name": "Silicon_Lower_Constraint", "coefficients": [{"name": "Pig_A", "value": 40}, {"name": "Pig_B", "value": 10}, {"name": "Pig_C", "value": 6}]}, {"sense": -1, "pi": 0.0, "constant": -55, "name": "Silicon_Upper_Constraint", "coefficients": [{"name": "Pig_A", "value": 40}, {"name": "Pig_B", "value": 10}, {"name": "Pig_C", "value": 6}]}], "variables": [{"lowBound": 0, "upBound": null, "cat": "Continuous", "varValue": 0.11072726, "dj": 0.0, "name": "Manganese"}, {"lowBound": 0, "upBound": null, "cat": "Continuous", "varValue": 0.7794313, "dj": 0.0, "name": "Pig_A"}, {"lowBound": 0, "upBound": null, "cat": "Continuous", "varValue": 0.0, "dj": 1.7530339, "name": "Pig_B"}, {"lowBound": 0, "upBound": null, "cat": "Continuous", "varValue": 0.22045797, "dj": 0.0, "name": "Pig_C"}], "parameters": {"name": "IronFoundry", "sense": 1, "status": 1, "sol_status": 1}, "sos1": [], "sos2": []}